
 102   30
  10   10   10   10   10   10   10   10   10   10   10   10   10   10   10   10   10   10   10   10   10   10   10   10   10   10   10   10   10   10

   0   0   0   0   0   0   0   0   0   0   0   0   0   0   0   0   0   0   0   0   0   0   0   0   0   0   0   0   0   0   0  24 2 3 4 5 6 9 10 11 12 13 17 18 19 20 21 23 25 26 27 28 29 35 39 40 
   2   0   0   0   0   0   0   1   0   0   0   0   0   0   0   0   1   0   1   1   0   0   2   0   0   0   0   0   0   0   0  10 59 53 46 44 42 36 16 15 14 7 
   5   0   0   0   0   0   1   0   0   0   0   0   0   0   2   0   0   0   0   0   0   0   0   0   0   0   1   0   0   0   0  15 80 68 62 60 59 58 54 52 51 50 43 41 33 30 8 
   5   0   0   0   0   0   0   0   0   3   0   3   0   1   5   0   0   0   0   0   0   0   0   0   0   0   0   0   0   0   0  19 100 80 79 76 62 59 57 56 55 53 50 48 46 42 41 38 36 34 24 
   5   0   0   0   0   0   5   0   0   0   0   0   0   0   0   0   0   0   0   0   0   0   0   0   0   0   0   0   2   0   1  12 101 79 77 57 54 53 52 48 44 42 24 22 
   6   0   0   0   0   1   0   5   0   0   1   0   0   0   0   3   0   0   0   0   0   0   0   0   1   0   0   0   0   0   0  13 101 99 78 76 68 54 51 48 47 45 37 36 30 
   7   0   0   0   0   0   0   0   0   0   0   6   1   0   0   0   0   4   6   0   0   0   0   0   0   0   0   0   0   0   7  13 100 79 67 64 63 57 54 48 47 43 41 34 31 
   5   0   1   0   0   0   0   0   0   0   0   4   0   0   0   5   0   0   8   0   0   0   4   0   0   0   0   0   0   0   0  14 101 97 79 78 77 76 69 63 61 57 56 55 48 24 
   5   0   0   0   0   7   0   0   0   3   0   3   0   0   0  10   0   0   6   0   0   0   0   1   0   0   0   0   0   0   0  18 99 80 79 75 69 67 63 62 60 58 57 55 53 51 50 49 48 45 
   1   0   0   0   0   0   0   0   0   0   0   0   0  10  10   0   0   0   0   0   0   0   0   0   0   1   0   0   0   0   0  16 100 93 80 78 76 69 64 62 61 60 57 56 52 49 41 30 
   2   0   0   0   0   0   0   0   1   4   0   0   0   0   0   0   5   0   0   0   0   0   0   0   0   0   2   0   7   0   0  14 99 95 93 80 78 77 76 75 73 69 64 61 41 30 
   7   0   0   1   0   0   0   0   0   0   0   0   0   0   0   6   9   0   0   7   0   0   0   0   0   0   0   0  10   0   0  14 100 98 97 79 76 75 69 65 64 57 56 55 45 34 
   4   0   0   7   0   7   0   0   7   0   0   0   2   0   0   0   0   0   0   0   0   0   0   0   0   0   0   0   2   0   0  16 101 100 99 80 76 75 71 69 68 66 64 62 61 60 50 46 
   9   0   0   0   0   0   0   0   0   0   0   0   0   0   0   0   0   0   0   0   2   0   0   0   0   0   0   0   0   0   0  10 99 78 76 73 64 61 60 56 45 30 
   9   0   0   0   0   0   0   0   0   0   0   0   0   0   0   0   0   0   0   0   0   0   0   0   5   0   0   0   0   0   0  12 99 79 77 76 73 71 69 67 65 62 58 32 
   5   0   0   0   0   0   0   0   0   0   0   0   0   0   0   5   7   0   0   0   0   0   0   0   0   0   0   0   0   0   0  10 100 99 97 73 71 65 60 57 50 32 
   9   0   0   0   0   0   0   0   0   0   0   0   0   0   3   0   0   0   4   0   0   0   7   0   0   0  10   1   0   0   0  17 100 99 98 96 94 93 89 76 74 68 66 64 62 56 55 52 48 
  10   0   0   0   0   0   0   0   0   0   0   0   0   0   0   0   6   0   8   0   0   0   0   0   0   0   0   0   5   0   0  16 100 97 92 89 79 75 74 72 71 68 66 65 64 63 60 46 
   3   0   0   0   0   0   5   0   0   0   0   0   0   0   4   0   0   6   0   5   0   1   0   0   0   0   0   0   0   1   0  15 99 96 93 89 77 76 75 71 64 62 61 58 57 52 49 
   9   0   0   0   0   0   6   0   0   0   0   6   0   0   0   3   0   0   0   0   0   0   0   0   0   0   0   0   0   0   0  14 98 96 94 78 77 76 75 67 66 64 61 54 45 41 
   3   0   0   5   2   0   0   0   0   0   0   0   0   0   0   0   0   0   0   0   0   0   0   0   0   0   4   0   0   0   0  15 100 99 98 97 93 78 72 69 67 66 64 63 61 55 48 
   3   0   0   0   0   0   0   7   0   0   0   0   6   0   0   0   0   0   2   0   5   0   0   0   0   0   0   0   0   0   0  16 100 98 96 93 89 87 76 75 72 71 70 68 62 61 58 49 
   2   0   6   0   0   0   0   0   0   0   0   0   0   0   0   0   0   0   0   0   0   0   0   0   0   6   0   0   0   0   0  11 100 79 77 72 64 61 59 57 55 48 43 
   9   0   0   0   0   0   0   0   0   0   2   0   0   0   0   7   0   0   0   0   0   0   0   0   0   0   0   0   0   0   0   7 99 73 71 67 66 65 32 
   1   0   0   0   0   0   0   9   0   0   0   0   0   0   0   0   0   0   0   3   3   0   0   0   0   0   0   0   0   0   0  16 100 98 95 93 89 88 87 77 76 75 73 70 66 62 61 53 
   3   0   0   0   0   0   0   0   0   0   0   0   0   0   0   0   6   0  10   0   0   0   0   8   0   0   0   0   6   4   0  15 100 99 98 96 95 90 76 75 74 73 71 61 60 59 54 
   9   0   0   0   3   0   0   0   0   0   0   0   0   4   0   5   0   0   0   0   0   0   0   0   0   0   0   6   0   0   0  14 98 97 94 93 86 80 77 73 72 67 66 64 63 62 
   6   1   0   0   0   0   0   0   8   0   0   0   0   0  10   0   0   0   0   0   8   0   0   0   0   0   0   0   0   0   0  18 100 98 97 95 94 93 91 89 87 85 78 75 74 73 72 71 64 61 
   4   0   0   0   0   0   8   0   0   0   0   0   0   0   0   0   5   4   0   0   0   0   0   0   0   0   0   0   0   0   0  15 98 97 95 94 91 90 89 87 77 76 74 72 71 64 54 
  10   0   0   7   0   0   0   0   0   0   0   5   0   2   7   0   0   0   0   0   0   0   0   0   0   8   0   0   0   0   0  12 98 97 94 86 79 74 72 70 67 66 63 55 
   5   0   0   0   0   0   0   0   0   0   0   0   0   0   0   0   0   0   6   0   0   0   0   0   0   0   6   0   0   0   0  16 98 96 95 94 93 91 89 87 86 78 75 72 71 70 68 66 
   9   0   0   0   7   0   0   0   0   0   0   0   7   0   0   0   0   0   0   0   0   0   0   0   0   0   0   0   0   0   0  10 98 96 94 92 90 88 75 74 64 45 
   9   0   0   7   0   0   0   0   0   0   0   0   0   0   0   0   0   0   0   0   0   0   5   0   0   0  10   0   0   0   0   8 100 93 90 76 74 72 64 44 
   3   0   0   0   0   0   0   0   0   0   0   0   0   3   0   0   0   6   0   0   0   0   0   0  10   7   0   7   0   0   0  14 99 96 93 92 91 88 87 84 78 77 74 71 66 60 
   3   0   7   0   0   0   0   0   0   0   0   0   0   0   8   0   0   0   6   0   0   0   0   0   0   0   0   0   4   0   0  14 101 100 95 94 93 92 89 87 85 75 72 71 70 59 
   9   0   0   6   0   0   0   0   0   0   0   0   0   0   0   0   0   0   8   0   8  10   0   0   6   0   0   0   0   0   0  13 95 91 90 89 88 87 85 84 72 71 64 61 60 
   5   0   0   0   0   0   0   0   0   5   7   0   0   0   0   0   0   0   0   0   0   7   0   0   0   0   0   0   0   0   0  11 97 96 95 94 91 89 88 87 75 66 56 
   6   0   0   0   0   0   0   0   0   0   7   0   0   0   0   0   5   0   0   0   0   0   4   0   8   0   0   0   0   7   0  15 98 95 93 92 91 90 89 88 87 86 85 84 82 73 70 
   7   0   6   0   0   0   0   0   0   0   0   0   0   6   0   8   0   0   0   4   0   0   0   0   0   9   0   0   0   7   0  11 97 94 93 91 89 87 86 84 73 72 66 
   4   8   0   0   0   0   0   0   0   0   0   0   0   0   0   0   0  10   0   0   0   0   0   0   0   0   0   0   0   0   0  10 94 93 91 90 87 85 82 80 78 61 
   4   4   3   6   0   0   0   0   0   0   0   0   0   0   0   0   0   0   0   0   0   0   0   0   0   0   0   0   0   0   0  11 97 92 91 89 88 86 84 74 72 71 70 
   8   0   0   0   0   0   0   0   0   0  10  10   0   5   0   0   5   0   0   0  10   0   0   0   0   0   0   0   0   0   0   9 98 95 91 89 81 73 72 68 66 
   9   0   0   0   0   0   0   0   0   0   0   0   4   0   0   0   0   0   0   0   0   0   0   0   0   0   0   0   6   0   7  12 92 89 88 87 86 85 84 82 81 74 73 71 
   2   0   0   0   0   0   0   0   0   0   0   0   0   0   0   0   0   0   0   0   0   0   0   0   0   0   0   9   0   0   8  10 99 97 94 89 87 86 83 82 81 63 
   9   9   0   0   0   0   0   4   0   0   0   0   0   0   0   0   0   0   0   0   0   9   0   0   0   0   0   0   9   0   0  10 95 93 91 89 87 86 85 83 72 70 
   3   0   0   0   0   0   0   0   0   0   0   0   0   0   0   0   0   0   0   0   0   3   0   7   0   0   0   0   0   6   0   6 95 90 87 86 73 54 
   6   0   0   0   9   0   0   0   0   0   0   0   0   0   0   0   0   0   0   0   0   0   0   0   0   7  10   4   7   7   0   6 87 84 82 80 66 62 
  10   0   0   0   7   0   0   0   5   0   0   0   0   0   0   0   0   8   0   0   0   0   0   0   0   0   0   0   0   0   0   8 95 92 88 87 86 85 73 70 
  10   0   0   0   0   0   0   0   0   0   5   0   0   6   0   5   0   6   8   0   0   0   0   0   0   0   0   0   0   0   6   8 95 92 86 85 84 81 74 73 
   5   0   0   0   0   0   0   0   0   0   0   0   9   9   0   0   0   0   0   0   0   0   0   0   0   0   0   0   7   0   0   6 98 92 87 84 83 77 
   2   0   0   0   4   7   0   0   0   0   0   0   9   5   0   6   0   0   4   0   0   0   0   0   0   0   0   7   4   0   0   6 97 93 88 86 82 70 
   6   7   0   0   0   0   0   0   0   4   0   0   0   0   0   0   0   0   0   0   0   0  10   0   8   4   0   0   0   0   0   5 97 88 87 86 72 
   8   0   0   9   0   0   0   0   0   0   8   0   0   0   0   0   0   0   0   0   0   0   0   0   5   0   0   0  10   0   0   5 96 90 84 82 71 
   6  10   0   0   0   0   0   0   0   0   0   0   0   0   0   0   0   0   0   0   0   0   0   0   0   0   0   0   6   0   0   5 93 88 85 84 81 
   9   0   0   0   0   0   0   5   7   0   4   0   7   0   0   0   0   0   0   0   0   0   0   0   0   3   0   0   5   0   0   4 85 84 81 71 
   8   6   0   0   4   0   0   0   0   0   0   0   0   0   0   0   0   0   0   0   0   0   0   0   0   0   0   0   6  10   0   4 86 85 82 70 
   5   0   0   0   0   0   8   0   0   0   0   0   0   0   0   0   9   0   0   0   0   0   7   0   0   0   9   6   0   0   0   3 87 81 66 
   5   7   0   7   0   0   0   0   0   0   0   0   5   8   0   5   0   0   0   0   0   0   0   8   0   0   7   0   9   0   0   3 86 83 66 
  10   0   0   0  10   0   0   0   0   0   0   0   0   0   0   0   0   0   0   0   6   0   0   0   0   0   0   0   0   0   0   4 97 88 84 83 
   1   6   0   0   0   5   0   0   0   0   0   0   0   0   0   0   0   0   0   0   0   0   9   0   0   0   6   6   0   0   0   3 94 82 70 
   9   0   0   0   9   0   0   0   0   5   0   0   0   0   0   0   0   4   0   0   0   0   0   0   0   0   0   0   0   0   0   3 92 86 83 
   9   0   0   4   0   0   0   0   0   0   0   0   0   0   0   0   0   0   0   5   0   0   0   0   0   0   0   0   3   5   0   3 92 91 81 
   6   0  10   0   0   0   0   0   0   0   0   0   0   8   0   0   0   0   0   0   0   0   0   0   0   0   0   0   0   8   6   3 96 88 84 
   9   0   0   0   0   0   0   8   0   0   6   0   0   0   0   0   0   0   0   0   0   0   0   0   0   0   0   0   0   0   0   2 82 70 
   4   0   0   0   0   7   7   6   6   0   0   0   0   0   0   7   0   0   0   0   5   0   0   0   0   0   0   0   0   0   0   2 94 70 
   2   0   6   0   0   0   0   0   0   0   0   0   0   0   0   0   0   0   0   0   0   0   0   0   0   0   2   0   0   0   0   2 90 85 
   1   0   0   0   0   0   3   0   6   0   0   0   0   0   0   0   0   0   0   0   0   0   0   0   0   0   0   0   0   0   0   2 89 87 
   2   0   3   0   6   0   7   9   0   0   0   0   0   0   0   0   0   0   0   7   0   0   0   0   0   0   0   0   0   0   0   2 88 82 
  10   0   0   0   5   0   0   0   0   0   0   0   6   0   0   0   0   0   0   0   0   0   0   0   0   4   0   0   0   0   0   2 96 94 
   4   0   0   0   4   0   0   0   0   0   0   0   0   0   0   0   0   0   0   0   0   0   0   0   0   0   6   5   0   0   0   1 81 
   7   0   0   0   0   0   0   0   0  10   0   0   5   0   0   0   0   0   0   0   0   0  10   0   0   8   0   0   0   0   0   1 83 
   6   7   0   0   0   0   0   0   0   0   0   0   0   0   0   0   0   0   0   0   7   0   0   0   0   0   0   0   0   0   0   1 82 
   5   0   0   0   0   0   0   0   0   0   0   0   0   0   3   0   0   8   0   7   7   0   0   0   0   0   0   0   0   0   0   1 83 
   3   0  10   0   0  10   0   0   0   0   0   5   8   0   0   0   0   0   0   8   8   0   0   0   0   0   0   0   0   0   0   1 83 
   2   0   0   0   0   0   0   4   0   0   0   0   7   7   0   0   0   0   0   0   0   0   0   0   0   0   0   0   0   0   0   1 84 
  10   0   8   0   0   0   0   0   0   0   0   4   0   0   0   0   0   0   0   0   3   0   0   0   0   0   0   0   0   0   0   1 86 
   8   0   0   6   0   8   9   0   0   7   0   0   0   0   8   0   0   5   0   0   0   0   0   0   0   0   0   0   0   0   0   1 82 
   5   0   0   0   0   0   0   0   0   0   0  10   0   0   0   0   0   0   0   0   0   0   0   0   0   8   0   7   0   0   0   1 81 
   4   0   0   0   0   0   0   7   0   0   0   0   0   0   0   0   7   0   0   0   0   0   0   0   0   0   0   0   0   0   0   1 91 
   2   0   0   0   0   0   0   3   0   0   0   0   6   0   0   0   0   0   0   0   0   0   0   0   0   0   0   0   0   0   0   1 89 
   4   7   0   0   0   0   0   0   0   0   8   0   0   0   0   6   0   0   0   7   0   0   3   0   0   4   0   6   0   0   0   1 102
   4   0   0   0   4   0   0   0   0   0   0   0   0   0   0   0   0   4   0   0   0   0   5   0   0   0   0   0   0   0   6   1 102
  10   3   0   0  10   0   0   0   0   0   0   0   0   0   5   8   0   6   0   0   6   0   0   7   0   0   0   0   0   0   0   1 102
   1   0   0   0   0   0   0   0   0   0   6   0   0   0   0   0   0   0   6   0   0   0   0   0   0   0   3   0   0   0   0   1 102
   9   0   0   0   0   0   0   0   0   0   5   0   0   0   0   0   0   0   0   0   0   0   0   0   0   0   0   0   0   0   8   1 102
   6   0   0   8   0   6   0   0   0   0   0   0   0   0   0   0   0   4   0   7   0   0   0   0   0   7   0   0   0   0   5   1 102
   9   0   0   0   0   0   0   0   0   0   0   0   2   0   0   0   7   0   0   8   0   0   0   4   6   0   0   0   0   0   0   1 102
  10   3   3   0   0   0   7   0   0   0   0   0   0   0   9   7   0   5   0   0   0   0   0   6   0   0   0   0   0   0   0   1 102
  10   0   0   0   0   4   0   0   0   0   0   0   0   0   5   0   0   0   0   0   0   0   0   0   0   0   8   0   0   0   6   1 102
   3   6   0   0   0   0   0   0   0   0   0   0   0   0   0   0   0   5   0   0   0   0   0   0   0   0   0   0   0   0   0   1 102
   1   0   0   0   0   0   0   0   0   0   0   0   0  10   0   0   0   0   0   6   6   0   0   0   0   0   0   0   0   0   0   1 102
   6   5   0   0   0   6   0   6   6   0   0   0   0   0   0   0   0   0   0   0   0   0   0   0   0   0   0   0   0   0   0   1 102
   7   0   0   0   0   0   0   0   8   0   0   0   0   0   0   0   0   0   7   0   0   0   0   0   0   0   0   0   0   0   0   1 102
   9   5   0   0   0   0   0   0   0   0   0   0   0   0   0   0   0   7   0   0   0   0   0   0   5   0   0   0   0   0   6   1 102
   7   7   0   0   0   0   0   9   0   0   0   0   0   0   0   0   0   0   0   0   0   0   0   5   0   0   0   0   0   0   0   1 102
   2   0   0   0   0   0   0   0   0   0   9   7   0   0   0   0   0  10   0   0   0   0   0   0   0   0   0   0   0   0   0   1 102
   2   0   0   0   0   0   0   0   0   0   0   0   9   0   0   0   0   0   0   0   0   0   0   0   0   0   0   0   0   0   0   1 102
   9   0   9   0   0   7   0   7   0   0   0   0   0   0   0   0   0   0   0   0   0   0   0   0   0   0   0   8   0   0   0   1 102
   7   0   0   0   0   0   0   0   0   9   0   9   9   0   5   0   0   0   0   9   0   0   0   5   0   0   0   0   0   5   0   1 102
   7   7   0   0   0   3   0   0   0   0   0   0   0   0   0   0   0   0   0   0   0   0   0   0   0   8   0   0   0   0   0   1 102
   4   0   0   5   0   0   0   0   6  10   0   6   0   0   0   0   0   0   0   0   0   0   0   9   0   0   0   0   0   6   0   1 102
   0   0   0   0   0   0   0   0   0   0   0   0   0   0   0   0   0   0   0   0   0   0   0   0   0   0   0   0   0   0   0   0 
